p edge 30 51 15
v 1 5
v 1 29
v 3 6 12 22
v 3 2 16 19
v 2 15 25
v 2 9 17
v 2 18 24
v 1 30
v 3 26 27 28
v 1 10
v 3 4 7 21
v 2 11 23
v 2 14 20
v 1 3
v 3 1 8 13
e 1 22
e 1 25
e 1 26
e 2 9
e 2 17
e 2 20
e 3 11
e 3 14
e 3 21
e 3 30
e 4 9
e 4 10
e 4 24
e 4 27
e 5 8
e 6 7
e 6 12
e 6 24
e 6 27
e 7 17
e 7 18
e 7 29
e 8 11
e 8 13
e 8 15
e 8 23
e 8 27
e 9 12
e 9 28
e 10 18
e 10 20
e 10 21
e 11 14
e 12 19
e 13 21
e 13 29
e 14 22
e 14 24
e 15 30
e 16 21
e 16 25
e 16 26
e 17 27
e 18 25
e 19 28
e 20 24
e 20 26
e 22 26
e 23 30
e 25 26
e 25 29
